benchmark/results/graph__15-1000-0.10-02_14/graph__15-1000-0.10-02_14_Quinton_Benders_sub.lp
\ This file has been generated by DOcplex
\ ENCODING=ISO-8859-1
\Problem name: Quinton Benders_dual_sub

Minimize
 obj: 0.001385041551 pi_nr_a0 + 0.001123595506 pi_nr_a1
      + 0.000920810313 pi_nr_a2 + 0.000964320154 pi_nr_a3
      + 0.000863557858 pi_nr_a4 + 0.001322751323 pi_nr_a5
      + 0.000859106529 pi_nr_a6 + 0.001006036217 pi_nr_a7
      + 0.002141327623 pi_nr_a8 + 0.001277139208 pi_nr_a9
      + 0.000884173298 pi_nr_a10 + 0.001773049645 pi_nr_a11
      + 0.001051524711 pi_nr_a12 + 0.001010101010 pi_nr_a13
      + 0.000909090909 pi_nr_a14 + pi_p_a7_a0 + pi_p_a7_a9 + pi_p_a10_a6
      + pi_p_a8_a11 + pi_p_a14_a13 + pi_p_a5_a4 + pi_p_a1_a10 + pi_p_a1_a9
      + pi_p_a11_a13 + pi_p_a5_a9 + pi_p_a14_a14 + pi_p_a12_a12 + pi_p_a12_a2
      + 2524 pi_d_a0_a1_proc_0 + 2524 pi_d_a0_a1_proc_1 + pi_d_a1_a0_proc_0
      + pi_d_a1_a0_proc_1 + 2524 pi_d_a0_a2_proc_0 + 2524 pi_d_a0_a2_proc_1
      + pi_d_a2_a0_proc_0 + pi_d_a2_a0_proc_1 + 2524 pi_d_a0_a3_proc_0
      + 2524 pi_d_a0_a3_proc_1 + pi_d_a3_a0_proc_0 + pi_d_a3_a0_proc_1
      + pi_d_a0_a4_proc_0 + 2524 pi_d_a0_a5_proc_0 + 2524 pi_d_a0_a5_proc_1
      + pi_d_a5_a0_proc_0 + pi_d_a5_a0_proc_1 + 2525 pi_d_a0_a6_proc_1
      + 2524 pi_d_a0_a7_proc_1 + pi_d_a7_a0_proc_0 + 2525 pi_d_a7_a0_proc_1
      + 2524 pi_d_a0_a8_proc_1 + pi_d_a8_a0_proc_0 + 2525 pi_d_a8_a0_proc_1
      + 2525 pi_d_a0_a9_proc_0 + 2525 pi_d_a0_a9_proc_1
      + 2524 pi_d_a0_a10_proc_1 + pi_d_a10_a0_proc_0 + 2525 pi_d_a10_a0_proc_1
      + 2524 pi_d_a0_a11_proc_1 + pi_d_a11_a0_proc_0 + 2525 pi_d_a11_a0_proc_1
      + 2524 pi_d_a0_a12_proc_0 + 2524 pi_d_a0_a12_proc_1 + pi_d_a12_a0_proc_0
      + pi_d_a12_a0_proc_1 + pi_d_a0_a13_proc_0 + 2525 pi_d_a0_a13_proc_1
      + 2524 pi_d_a13_a0_proc_1 + 2524 pi_d_a0_a14_proc_1 + pi_d_a14_a0_proc_0
      + 2525 pi_d_a14_a0_proc_1 + 2525 pi_d_a1_a2_proc_0 + pi_d_a1_a2_proc_1
      + 2524 pi_d_a2_a1_proc_0 + 2525 pi_d_a1_a3_proc_0 + pi_d_a1_a3_proc_1
      + 2524 pi_d_a3_a1_proc_0 + 2525 pi_d_a1_a4_proc_0 + 2525 pi_d_a1_a5_proc_0
      + pi_d_a1_a5_proc_1 + 2524 pi_d_a5_a1_proc_0 + pi_d_a1_a6_proc_1
      + 2525 pi_d_a1_a7_proc_0 + 2525 pi_d_a1_a7_proc_1 + 2525 pi_d_a1_a8_proc_0
      + 2525 pi_d_a1_a8_proc_1 + 2525 pi_d_a1_a9_proc_0 + pi_d_a1_a9_proc_1
      + 2524 pi_d_a9_a1_proc_0 + 1005 pi_d_a1_a10_proc_0
      + 1005 pi_d_a1_a10_proc_1 + 1520 pi_d_a10_a1_proc_0
      + 1520 pi_d_a10_a1_proc_1 + 2525 pi_d_a1_a11_proc_0
      + 2525 pi_d_a1_a11_proc_1 + 2525 pi_d_a1_a12_proc_0 + pi_d_a1_a12_proc_1
      + 2524 pi_d_a12_a1_proc_0 + 239 pi_d_a1_a13_proc_0
      + 239 pi_d_a1_a13_proc_1 + 2286 pi_d_a13_a1_proc_0
      + 2286 pi_d_a13_a1_proc_1 + 130 pi_d_a1_a14_proc_0
      + 130 pi_d_a1_a14_proc_1 + 2395 pi_d_a14_a1_proc_0
      + 2395 pi_d_a14_a1_proc_1 + 2524 pi_d_a2_a3_proc_0
      + 2525 pi_d_a3_a2_proc_0 + pi_d_a3_a2_proc_1 + 2525 pi_d_a2_a4_proc_0
      + 2524 pi_d_a2_a5_proc_0 + 2525 pi_d_a5_a2_proc_0 + pi_d_a5_a2_proc_1
      + pi_d_a2_a6_proc_1 + 2524 pi_d_a2_a7_proc_0 + 2524 pi_d_a2_a7_proc_1
      + pi_d_a7_a2_proc_0 + pi_d_a7_a2_proc_1 + 2524 pi_d_a2_a8_proc_0
      + 2524 pi_d_a2_a8_proc_1 + pi_d_a8_a2_proc_0 + pi_d_a8_a2_proc_1
      + 2525 pi_d_a2_a9_proc_0 + pi_d_a2_a9_proc_1 + 2524 pi_d_a9_a2_proc_0
      + 2524 pi_d_a2_a10_proc_0 + 2524 pi_d_a2_a10_proc_1 + pi_d_a10_a2_proc_0
      + pi_d_a10_a2_proc_1 + 2524 pi_d_a2_a11_proc_0 + 2524 pi_d_a2_a11_proc_1
      + pi_d_a11_a2_proc_0 + pi_d_a11_a2_proc_1 + 2524 pi_d_a2_a12_proc_0
      + 2525 pi_d_a12_a2_proc_0 + pi_d_a12_a2_proc_1 + 2525 pi_d_a2_a13_proc_0
      + 2525 pi_d_a2_a13_proc_1 + 2524 pi_d_a2_a14_proc_0
      + 2524 pi_d_a2_a14_proc_1 + pi_d_a14_a2_proc_0 + pi_d_a14_a2_proc_1
      + 2525 pi_d_a3_a4_proc_0 + 2524 pi_d_a3_a5_proc_0 + 2525 pi_d_a5_a3_proc_0
      + pi_d_a5_a3_proc_1 + pi_d_a3_a6_proc_1 + 2525 pi_d_a7_a3_proc_0
      + 2525 pi_d_a7_a3_proc_1 + 2524 pi_d_a3_a8_proc_0 + 2524 pi_d_a3_a8_proc_1
      + pi_d_a8_a3_proc_0 + pi_d_a8_a3_proc_1 + 2525 pi_d_a3_a9_proc_0
      + pi_d_a3_a9_proc_1 + 2524 pi_d_a9_a3_proc_0 + 2524 pi_d_a3_a10_proc_0
      + 2524 pi_d_a3_a10_proc_1 + pi_d_a10_a3_proc_0 + pi_d_a10_a3_proc_1
      + 2524 pi_d_a3_a11_proc_0 + 2524 pi_d_a3_a11_proc_1 + pi_d_a11_a3_proc_0
      + pi_d_a11_a3_proc_1 + 2524 pi_d_a3_a12_proc_0 + 2525 pi_d_a12_a3_proc_0
      + pi_d_a12_a3_proc_1 + 1452 pi_d_a3_a13_proc_0 + 1452 pi_d_a3_a13_proc_1
      + 1073 pi_d_a13_a3_proc_0 + 1073 pi_d_a13_a3_proc_1
      + 2328 pi_d_a3_a14_proc_0 + 2328 pi_d_a3_a14_proc_1
      + 197 pi_d_a14_a3_proc_0 + 197 pi_d_a14_a3_proc_1 + 2524 pi_d_a4_a5_proc_0
      + pi_d_a5_a4_proc_0 + pi_d_a7_a4_proc_0 + pi_d_a8_a4_proc_0
      + 2525 pi_d_a4_a9_proc_0 + pi_d_a10_a4_proc_0 + pi_d_a11_a4_proc_0
      + 2524 pi_d_a4_a12_proc_0 + pi_d_a12_a4_proc_0 + pi_d_a4_a13_proc_0
      + pi_d_a14_a4_proc_0 + pi_d_a5_a6_proc_1 + 2524 pi_d_a5_a7_proc_0
      + 2524 pi_d_a5_a7_proc_1 + pi_d_a7_a5_proc_0 + pi_d_a7_a5_proc_1
      + 2525 pi_d_a5_a8_proc_0 + 2525 pi_d_a5_a8_proc_1 + 2525 pi_d_a5_a9_proc_0
      + pi_d_a5_a9_proc_1 + 2524 pi_d_a9_a5_proc_0 + 2525 pi_d_a5_a10_proc_0
      + 2525 pi_d_a5_a10_proc_1 + pi_d_a5_a11_proc_0 + pi_d_a5_a11_proc_1
      + 2524 pi_d_a11_a5_proc_0 + 2524 pi_d_a11_a5_proc_1
      + 2525 pi_d_a5_a12_proc_0 + pi_d_a5_a12_proc_1 + 2524 pi_d_a12_a5_proc_0
      + pi_d_a5_a13_proc_0 + pi_d_a5_a13_proc_1 + 2524 pi_d_a13_a5_proc_0
      + 2524 pi_d_a13_a5_proc_1 + 1730 pi_d_a5_a14_proc_0
      + 1730 pi_d_a5_a14_proc_1 + 795 pi_d_a14_a5_proc_0
      + 795 pi_d_a14_a5_proc_1 + 2524 pi_d_a6_a7_proc_1 + pi_d_a7_a6_proc_1
      + 2524 pi_d_a6_a8_proc_1 + pi_d_a8_a6_proc_1 + pi_d_a6_a9_proc_1
      + 2524 pi_d_a6_a10_proc_1 + pi_d_a10_a6_proc_1 + 2524 pi_d_a6_a11_proc_1
      + pi_d_a11_a6_proc_1 + pi_d_a12_a6_proc_1 + 2524 pi_d_a6_a13_proc_1
      + pi_d_a13_a6_proc_1 + 2524 pi_d_a6_a14_proc_1 + pi_d_a14_a6_proc_1
      + pi_d_a7_a8_proc_0 + 2525 pi_d_a7_a8_proc_1 + 2524 pi_d_a8_a7_proc_1
      + 2525 pi_d_a7_a9_proc_0 + 2525 pi_d_a7_a9_proc_1 + pi_d_a7_a10_proc_0
      + 2525 pi_d_a7_a10_proc_1 + 2524 pi_d_a10_a7_proc_1 + pi_d_a7_a11_proc_0
      + 2525 pi_d_a7_a11_proc_1 + 2524 pi_d_a11_a7_proc_1
      + 2525 pi_d_a7_a12_proc_0 + 2525 pi_d_a7_a12_proc_1 + pi_d_a7_a13_proc_0
      + 2525 pi_d_a7_a13_proc_1 + 2524 pi_d_a13_a7_proc_1
      + 2524 pi_d_a7_a14_proc_1 + pi_d_a14_a7_proc_0 + 2525 pi_d_a14_a7_proc_1
      + 2525 pi_d_a8_a9_proc_0 + 2525 pi_d_a8_a9_proc_1 + pi_d_a8_a10_proc_0
      + 2525 pi_d_a8_a10_proc_1 + 2524 pi_d_a10_a8_proc_1 + pi_d_a8_a11_proc_0
      + 2525 pi_d_a8_a11_proc_1 + 2524 pi_d_a11_a8_proc_1
      + 2524 pi_d_a8_a12_proc_0 + 2524 pi_d_a8_a12_proc_1 + pi_d_a12_a8_proc_0
      + pi_d_a12_a8_proc_1 + pi_d_a8_a13_proc_0 + 2525 pi_d_a8_a13_proc_1
      + 2524 pi_d_a13_a8_proc_1 + 2524 pi_d_a8_a14_proc_1 + pi_d_a14_a8_proc_0
      + 2525 pi_d_a14_a8_proc_1 + 2524 pi_d_a9_a10_proc_0
      + 2524 pi_d_a9_a10_proc_1 + pi_d_a10_a9_proc_0 + pi_d_a10_a9_proc_1
      + 2524 pi_d_a9_a11_proc_0 + 2524 pi_d_a9_a11_proc_1 + pi_d_a11_a9_proc_0
      + pi_d_a11_a9_proc_1 + 2524 pi_d_a9_a12_proc_0 + 2525 pi_d_a12_a9_proc_0
      + pi_d_a12_a9_proc_1 + 2524 pi_d_a9_a13_proc_0 + 2524 pi_d_a9_a13_proc_1
      + pi_d_a13_a9_proc_0 + pi_d_a13_a9_proc_1 + 2525 pi_d_a14_a9_proc_0
      + 2525 pi_d_a14_a9_proc_1 + pi_d_a10_a11_proc_0 + 2525 pi_d_a10_a11_proc_1
      + 2524 pi_d_a11_a10_proc_1 + pi_d_a10_a12_proc_0 + pi_d_a10_a12_proc_1
      + 2524 pi_d_a12_a10_proc_0 + 2524 pi_d_a12_a10_proc_1
      + pi_d_a10_a13_proc_0 + 2525 pi_d_a10_a13_proc_1
      + 2524 pi_d_a13_a10_proc_1 + 2524 pi_d_a10_a14_proc_1
      + pi_d_a14_a10_proc_0 + 2525 pi_d_a14_a10_proc_1
      + 2524 pi_d_a11_a12_proc_0 + 2524 pi_d_a11_a12_proc_1
      + pi_d_a12_a11_proc_0 + pi_d_a12_a11_proc_1 + pi_d_a11_a13_proc_0
      + 2525 pi_d_a11_a13_proc_1 + 2524 pi_d_a13_a11_proc_1
      + 2524 pi_d_a11_a14_proc_1 + pi_d_a14_a11_proc_0
      + 2525 pi_d_a14_a11_proc_1 + 2525 pi_d_a12_a13_proc_0
      + 2525 pi_d_a12_a13_proc_1 + 2524 pi_d_a12_a14_proc_0
      + 2524 pi_d_a12_a14_proc_1 + pi_d_a14_a12_proc_0 + pi_d_a14_a12_proc_1
      + 2524 pi_d_a13_a14_proc_1 + pi_d_a14_a13_proc_0
      + 2525 pi_d_a14_a13_proc_1 + pi_y2_a0_proc_0 + pi_y2_a1_proc_1
      + pi_y2_a2_proc_1 + pi_y2_a3_proc_1 + pi_y2_a4_proc_0 + pi_y2_a5_proc_1
      + pi_y2_a6_proc_1 + pi_y2_a7_proc_0 + pi_y2_a8_proc_0 + pi_y2_a9_proc_1
      + pi_y2_a10_proc_0 + pi_y2_a11_proc_0 + pi_y2_a12_proc_1
      + pi_y2_a13_proc_0 + pi_y2_a14_proc_0
Subject To
 c1: pi_nr_a0 + pi_nr_a1 + pi_nr_a2 + pi_nr_a3 + pi_nr_a4 + pi_nr_a5 + pi_nr_a6
     + pi_nr_a7 + pi_nr_a8 + pi_nr_a9 + pi_nr_a10 + pi_nr_a11 + pi_nr_a12
     + pi_nr_a13 + pi_nr_a14 - pi_y1_a0 - pi_y1_a1 - pi_y1_a2 - pi_y1_a3
     - pi_y1_a4 - pi_y1_a5 - pi_y1_a6 - pi_y1_a7 - pi_y1_a8 - pi_y1_a9
     - pi_y1_a10 - pi_y1_a11 - pi_y1_a12 - pi_y1_a13 - pi_y1_a14 >= 1
 c2: pi_p_a0_a1 - pi_p_a2_a0 + pi_p_a0_a3 - pi_p_a7_a0 + pi_p_a0_a11
     + pi_d_a0_a1_proc_0 + pi_d_a0_a1_proc_1 - pi_d_a1_a0_proc_0
     - pi_d_a1_a0_proc_1 + pi_d_a0_a2_proc_0 + pi_d_a0_a2_proc_1
     - pi_d_a2_a0_proc_0 - pi_d_a2_a0_proc_1 + pi_d_a0_a3_proc_0
     + pi_d_a0_a3_proc_1 - pi_d_a3_a0_proc_0 - pi_d_a3_a0_proc_1
     + pi_d_a0_a4_proc_0 - pi_d_a4_a0_proc_0 + pi_d_a0_a5_proc_0
     + pi_d_a0_a5_proc_1 - pi_d_a5_a0_proc_0 - pi_d_a5_a0_proc_1
     + pi_d_a0_a6_proc_1 - pi_d_a6_a0_proc_1 + pi_d_a0_a7_proc_0
     + pi_d_a0_a7_proc_1 - pi_d_a7_a0_proc_0 - pi_d_a7_a0_proc_1
     + pi_d_a0_a8_proc_0 + pi_d_a0_a8_proc_1 - pi_d_a8_a0_proc_0
     - pi_d_a8_a0_proc_1 + pi_d_a0_a9_proc_0 + pi_d_a0_a9_proc_1
     - pi_d_a9_a0_proc_0 - pi_d_a9_a0_proc_1 + pi_d_a0_a10_proc_0
     + pi_d_a0_a10_proc_1 - pi_d_a10_a0_proc_0 - pi_d_a10_a0_proc_1
     + pi_d_a0_a11_proc_0 + pi_d_a0_a11_proc_1 - pi_d_a11_a0_proc_0
     - pi_d_a11_a0_proc_1 + pi_d_a0_a12_proc_0 + pi_d_a0_a12_proc_1
     - pi_d_a12_a0_proc_0 - pi_d_a12_a0_proc_1 + pi_d_a0_a13_proc_0
     + pi_d_a0_a13_proc_1 - pi_d_a13_a0_proc_0 - pi_d_a13_a0_proc_1
     + pi_d_a0_a14_proc_0 + pi_d_a0_a14_proc_1 - pi_d_a14_a0_proc_0
     - pi_d_a14_a0_proc_1 >= 0
 c3: 722 pi_p_a0_a1 + 722 pi_p_a0_a3 + 722 pi_p_a0_a11 + 722 pi_d_a0_a1_proc_0
     + 722 pi_d_a0_a2_proc_0 + 722 pi_d_a0_a3_proc_0 + 722 pi_d_a0_a4_proc_0
     + 722 pi_d_a0_a5_proc_0 + 722 pi_d_a0_a7_proc_0 + 722 pi_d_a0_a8_proc_0
     + 722 pi_d_a0_a9_proc_0 + 722 pi_d_a0_a10_proc_0 + 722 pi_d_a0_a11_proc_0
     + 722 pi_d_a0_a12_proc_0 + 722 pi_d_a0_a13_proc_0 + 722 pi_d_a0_a14_proc_0
     + pi_y1_a0 + pi_y2_a0_proc_0 >= 0
 c4: 1114 pi_p_a0_a1 + 1114 pi_p_a0_a3 + 1114 pi_p_a0_a11
     + 1114 pi_d_a0_a1_proc_1 + 1114 pi_d_a0_a2_proc_1 + 1114 pi_d_a0_a3_proc_1
     + 1114 pi_d_a0_a5_proc_1 + 1114 pi_d_a0_a6_proc_1 + 1114 pi_d_a0_a7_proc_1
     + 1114 pi_d_a0_a8_proc_1 + 1114 pi_d_a0_a9_proc_1 + 1114 pi_d_a0_a10_proc_1
     + 1114 pi_d_a0_a11_proc_1 + 1114 pi_d_a0_a12_proc_1
     + 1114 pi_d_a0_a13_proc_1 + 1114 pi_d_a0_a14_proc_1 + pi_y1_a0
     + pi_y2_a0_proc_1 >= 0
 c5: - pi_p_a0_a1 - pi_p_a12_a1 + pi_p_a1_a10 + pi_p_a1_a9 - pi_d_a0_a1_proc_0
     - pi_d_a0_a1_proc_1 + pi_d_a1_a0_proc_0 + pi_d_a1_a0_proc_1
     + pi_d_a1_a2_proc_0 + pi_d_a1_a2_proc_1 - pi_d_a2_a1_proc_0
     - pi_d_a2_a1_proc_1 + pi_d_a1_a3_proc_0 + pi_d_a1_a3_proc_1
     - pi_d_a3_a1_proc_0 - pi_d_a3_a1_proc_1 + pi_d_a1_a4_proc_0
     - pi_d_a4_a1_proc_0 + pi_d_a1_a5_proc_0 + pi_d_a1_a5_proc_1
     - pi_d_a5_a1_proc_0 - pi_d_a5_a1_proc_1 + pi_d_a1_a6_proc_1
     - pi_d_a6_a1_proc_1 + pi_d_a1_a7_proc_0 + pi_d_a1_a7_proc_1
     - pi_d_a7_a1_proc_0 - pi_d_a7_a1_proc_1 + pi_d_a1_a8_proc_0
     + pi_d_a1_a8_proc_1 - pi_d_a8_a1_proc_0 - pi_d_a8_a1_proc_1
     + pi_d_a1_a9_proc_0 + pi_d_a1_a9_proc_1 - pi_d_a9_a1_proc_0
     - pi_d_a9_a1_proc_1 + pi_d_a1_a10_proc_0 + pi_d_a1_a10_proc_1
     - pi_d_a10_a1_proc_0 - pi_d_a10_a1_proc_1 + pi_d_a1_a11_proc_0
     + pi_d_a1_a11_proc_1 - pi_d_a11_a1_proc_0 - pi_d_a11_a1_proc_1
     + pi_d_a1_a12_proc_0 + pi_d_a1_a12_proc_1 - pi_d_a12_a1_proc_0
     - pi_d_a12_a1_proc_1 + pi_d_a1_a13_proc_0 + pi_d_a1_a13_proc_1
     - pi_d_a13_a1_proc_0 - pi_d_a13_a1_proc_1 + pi_d_a1_a14_proc_0
     + pi_d_a1_a14_proc_1 - pi_d_a14_a1_proc_0 - pi_d_a14_a1_proc_1 >= 0
 c6: 980 pi_p_a1_a10 + 980 pi_p_a1_a9 + 980 pi_d_a1_a0_proc_0
     + 980 pi_d_a1_a2_proc_0 + 980 pi_d_a1_a3_proc_0 + 980 pi_d_a1_a4_proc_0
     + 980 pi_d_a1_a5_proc_0 + 980 pi_d_a1_a7_proc_0 + 980 pi_d_a1_a8_proc_0
     + 980 pi_d_a1_a9_proc_0 + 980 pi_d_a1_a10_proc_0 + 980 pi_d_a1_a11_proc_0
     + 980 pi_d_a1_a12_proc_0 + 980 pi_d_a1_a13_proc_0 + 980 pi_d_a1_a14_proc_0
     + pi_y1_a1 + pi_y2_a1_proc_0 >= 0
 c7: 890 pi_p_a1_a10 + 890 pi_p_a1_a9 + 890 pi_d_a1_a0_proc_1
     + 890 pi_d_a1_a2_proc_1 + 890 pi_d_a1_a3_proc_1 + 890 pi_d_a1_a5_proc_1
     + 890 pi_d_a1_a6_proc_1 + 890 pi_d_a1_a7_proc_1 + 890 pi_d_a1_a8_proc_1
     + 890 pi_d_a1_a9_proc_1 + 890 pi_d_a1_a10_proc_1 + 890 pi_d_a1_a11_proc_1
     + 890 pi_d_a1_a12_proc_1 + 890 pi_d_a1_a13_proc_1 + 890 pi_d_a1_a14_proc_1
     + pi_y1_a1 + pi_y2_a1_proc_1 >= 0
 c8: pi_p_a2_a0 - pi_p_a4_a2 - pi_p_a9_a2 - pi_p_a12_a2 - pi_d_a0_a2_proc_0
     - pi_d_a0_a2_proc_1 + pi_d_a2_a0_proc_0 + pi_d_a2_a0_proc_1
     - pi_d_a1_a2_proc_0 - pi_d_a1_a2_proc_1 + pi_d_a2_a1_proc_0
     + pi_d_a2_a1_proc_1 + pi_d_a2_a3_proc_0 + pi_d_a2_a3_proc_1
     - pi_d_a3_a2_proc_0 - pi_d_a3_a2_proc_1 + pi_d_a2_a4_proc_0
     - pi_d_a4_a2_proc_0 + pi_d_a2_a5_proc_0 + pi_d_a2_a5_proc_1
     - pi_d_a5_a2_proc_0 - pi_d_a5_a2_proc_1 + pi_d_a2_a6_proc_1
     - pi_d_a6_a2_proc_1 + pi_d_a2_a7_proc_0 + pi_d_a2_a7_proc_1
     - pi_d_a7_a2_proc_0 - pi_d_a7_a2_proc_1 + pi_d_a2_a8_proc_0
     + pi_d_a2_a8_proc_1 - pi_d_a8_a2_proc_0 - pi_d_a8_a2_proc_1
     + pi_d_a2_a9_proc_0 + pi_d_a2_a9_proc_1 - pi_d_a9_a2_proc_0
     - pi_d_a9_a2_proc_1 + pi_d_a2_a10_proc_0 + pi_d_a2_a10_proc_1
     - pi_d_a10_a2_proc_0 - pi_d_a10_a2_proc_1 + pi_d_a2_a11_proc_0
     + pi_d_a2_a11_proc_1 - pi_d_a11_a2_proc_0 - pi_d_a11_a2_proc_1
     + pi_d_a2_a12_proc_0 + pi_d_a2_a12_proc_1 - pi_d_a12_a2_proc_0
     - pi_d_a12_a2_proc_1 + pi_d_a2_a13_proc_0 + pi_d_a2_a13_proc_1
     - pi_d_a13_a2_proc_0 - pi_d_a13_a2_proc_1 + pi_d_a2_a14_proc_0
     + pi_d_a2_a14_proc_1 - pi_d_a14_a2_proc_0 - pi_d_a14_a2_proc_1 >= 0
 c9: 1262 pi_p_a2_a0 + 1262 pi_d_a2_a0_proc_0 + 1262 pi_d_a2_a1_proc_0
     + 1262 pi_d_a2_a3_proc_0 + 1262 pi_d_a2_a4_proc_0 + 1262 pi_d_a2_a5_proc_0
     + 1262 pi_d_a2_a7_proc_0 + 1262 pi_d_a2_a8_proc_0 + 1262 pi_d_a2_a9_proc_0
     + 1262 pi_d_a2_a10_proc_0 + 1262 pi_d_a2_a11_proc_0
     + 1262 pi_d_a2_a12_proc_0 + 1262 pi_d_a2_a13_proc_0
     + 1262 pi_d_a2_a14_proc_0 + pi_y1_a2 + pi_y2_a2_proc_0 >= 0
 c10: 1086 pi_p_a2_a0 + 1086 pi_d_a2_a0_proc_1 + 1086 pi_d_a2_a1_proc_1
      + 1086 pi_d_a2_a3_proc_1 + 1086 pi_d_a2_a5_proc_1 + 1086 pi_d_a2_a6_proc_1
      + 1086 pi_d_a2_a7_proc_1 + 1086 pi_d_a2_a8_proc_1 + 1086 pi_d_a2_a9_proc_1
      + 1086 pi_d_a2_a10_proc_1 + 1086 pi_d_a2_a11_proc_1
      + 1086 pi_d_a2_a12_proc_1 + 1086 pi_d_a2_a13_proc_1
      + 1086 pi_d_a2_a14_proc_1 + pi_y1_a2 + pi_y2_a2_proc_1 >= 0
 c11: - pi_p_a0_a3 + pi_p_a3_a5 + pi_p_a3_a12 - pi_d_a0_a3_proc_0
      - pi_d_a0_a3_proc_1 + pi_d_a3_a0_proc_0 + pi_d_a3_a0_proc_1
      - pi_d_a1_a3_proc_0 - pi_d_a1_a3_proc_1 + pi_d_a3_a1_proc_0
      + pi_d_a3_a1_proc_1 - pi_d_a2_a3_proc_0 - pi_d_a2_a3_proc_1
      + pi_d_a3_a2_proc_0 + pi_d_a3_a2_proc_1 + pi_d_a3_a4_proc_0
      - pi_d_a4_a3_proc_0 + pi_d_a3_a5_proc_0 + pi_d_a3_a5_proc_1
      - pi_d_a5_a3_proc_0 - pi_d_a5_a3_proc_1 + pi_d_a3_a6_proc_1
      - pi_d_a6_a3_proc_1 + pi_d_a3_a7_proc_0 + pi_d_a3_a7_proc_1
      - pi_d_a7_a3_proc_0 - pi_d_a7_a3_proc_1 + pi_d_a3_a8_proc_0
      + pi_d_a3_a8_proc_1 - pi_d_a8_a3_proc_0 - pi_d_a8_a3_proc_1
      + pi_d_a3_a9_proc_0 + pi_d_a3_a9_proc_1 - pi_d_a9_a3_proc_0
      - pi_d_a9_a3_proc_1 + pi_d_a3_a10_proc_0 + pi_d_a3_a10_proc_1
      - pi_d_a10_a3_proc_0 - pi_d_a10_a3_proc_1 + pi_d_a3_a11_proc_0
      + pi_d_a3_a11_proc_1 - pi_d_a11_a3_proc_0 - pi_d_a11_a3_proc_1
      + pi_d_a3_a12_proc_0 + pi_d_a3_a12_proc_1 - pi_d_a12_a3_proc_0
      - pi_d_a12_a3_proc_1 + pi_d_a3_a13_proc_0 + pi_d_a3_a13_proc_1
      - pi_d_a13_a3_proc_0 - pi_d_a13_a3_proc_1 + pi_d_a3_a14_proc_0
      + pi_d_a3_a14_proc_1 - pi_d_a14_a3_proc_0 - pi_d_a14_a3_proc_1 >= 0
 c12: 1108 pi_p_a3_a5 + 1108 pi_p_a3_a12 + 1108 pi_d_a3_a0_proc_0
      + 1108 pi_d_a3_a1_proc_0 + 1108 pi_d_a3_a2_proc_0 + 1108 pi_d_a3_a4_proc_0
      + 1108 pi_d_a3_a5_proc_0 + 1108 pi_d_a3_a7_proc_0 + 1108 pi_d_a3_a8_proc_0
      + 1108 pi_d_a3_a9_proc_0 + 1108 pi_d_a3_a10_proc_0
      + 1108 pi_d_a3_a11_proc_0 + 1108 pi_d_a3_a12_proc_0
      + 1108 pi_d_a3_a13_proc_0 + 1108 pi_d_a3_a14_proc_0 + pi_y1_a3
      + pi_y2_a3_proc_0 >= 0
 c13: 1037 pi_p_a3_a5 + 1037 pi_p_a3_a12 + 1037 pi_d_a3_a0_proc_1
      + 1037 pi_d_a3_a1_proc_1 + 1037 pi_d_a3_a2_proc_1 + 1037 pi_d_a3_a5_proc_1
      + 1037 pi_d_a3_a6_proc_1 + 1037 pi_d_a3_a7_proc_1 + 1037 pi_d_a3_a8_proc_1
      + 1037 pi_d_a3_a9_proc_1 + 1037 pi_d_a3_a10_proc_1
      + 1037 pi_d_a3_a11_proc_1 + 1037 pi_d_a3_a12_proc_1
      + 1037 pi_d_a3_a13_proc_1 + 1037 pi_d_a3_a14_proc_1 + pi_y1_a3
      + pi_y2_a3_proc_1 >= 0
 c14: pi_p_a4_a2 - pi_p_a6_a4 - pi_p_a5_a4 - pi_d_a0_a4_proc_0
      + pi_d_a4_a0_proc_0 - pi_d_a1_a4_proc_0 + pi_d_a4_a1_proc_0
      - pi_d_a2_a4_proc_0 + pi_d_a4_a2_proc_0 - pi_d_a3_a4_proc_0
      + pi_d_a4_a3_proc_0 + pi_d_a4_a5_proc_0 - pi_d_a5_a4_proc_0
      + pi_d_a4_a7_proc_0 - pi_d_a7_a4_proc_0 + pi_d_a4_a8_proc_0
      - pi_d_a8_a4_proc_0 + pi_d_a4_a9_proc_0 - pi_d_a9_a4_proc_0
      + pi_d_a4_a10_proc_0 - pi_d_a10_a4_proc_0 + pi_d_a4_a11_proc_0
      - pi_d_a11_a4_proc_0 + pi_d_a4_a12_proc_0 - pi_d_a12_a4_proc_0
      + pi_d_a4_a13_proc_0 - pi_d_a13_a4_proc_0 + pi_d_a4_a14_proc_0
      - pi_d_a14_a4_proc_0 >= 0
 c15: 1158 pi_p_a4_a2 + 1158 pi_d_a4_a0_proc_0 + 1158 pi_d_a4_a1_proc_0
      + 1158 pi_d_a4_a2_proc_0 + 1158 pi_d_a4_a3_proc_0 + 1158 pi_d_a4_a5_proc_0
      + 1158 pi_d_a4_a7_proc_0 + 1158 pi_d_a4_a8_proc_0 + 1158 pi_d_a4_a9_proc_0
      + 1158 pi_d_a4_a10_proc_0 + 1158 pi_d_a4_a11_proc_0
      + 1158 pi_d_a4_a12_proc_0 + 1158 pi_d_a4_a13_proc_0
      + 1158 pi_d_a4_a14_proc_0 + pi_y1_a4 + pi_y2_a4_proc_0 >= 0
 c16: - pi_p_a3_a5 + pi_p_a5_a4 + pi_p_a5_a9 - pi_d_a0_a5_proc_0
      - pi_d_a0_a5_proc_1 + pi_d_a5_a0_proc_0 + pi_d_a5_a0_proc_1
      - pi_d_a1_a5_proc_0 - pi_d_a1_a5_proc_1 + pi_d_a5_a1_proc_0
      + pi_d_a5_a1_proc_1 - pi_d_a2_a5_proc_0 - pi_d_a2_a5_proc_1
      + pi_d_a5_a2_proc_0 + pi_d_a5_a2_proc_1 - pi_d_a3_a5_proc_0
      - pi_d_a3_a5_proc_1 + pi_d_a5_a3_proc_0 + pi_d_a5_a3_proc_1
      - pi_d_a4_a5_proc_0 + pi_d_a5_a4_proc_0 + pi_d_a5_a6_proc_1
      - pi_d_a6_a5_proc_1 + pi_d_a5_a7_proc_0 + pi_d_a5_a7_proc_1
      - pi_d_a7_a5_proc_0 - pi_d_a7_a5_proc_1 + pi_d_a5_a8_proc_0
      + pi_d_a5_a8_proc_1 - pi_d_a8_a5_proc_0 - pi_d_a8_a5_proc_1
      + pi_d_a5_a9_proc_0 + pi_d_a5_a9_proc_1 - pi_d_a9_a5_proc_0
      - pi_d_a9_a5_proc_1 + pi_d_a5_a10_proc_0 + pi_d_a5_a10_proc_1
      - pi_d_a10_a5_proc_0 - pi_d_a10_a5_proc_1 + pi_d_a5_a11_proc_0
      + pi_d_a5_a11_proc_1 - pi_d_a11_a5_proc_0 - pi_d_a11_a5_proc_1
      + pi_d_a5_a12_proc_0 + pi_d_a5_a12_proc_1 - pi_d_a12_a5_proc_0
      - pi_d_a12_a5_proc_1 + pi_d_a5_a13_proc_0 + pi_d_a5_a13_proc_1
      - pi_d_a13_a5_proc_0 - pi_d_a13_a5_proc_1 + pi_d_a5_a14_proc_0
      + pi_d_a5_a14_proc_1 - pi_d_a14_a5_proc_0 - pi_d_a14_a5_proc_1 >= 0
 c17: 967 pi_p_a5_a4 + 967 pi_p_a5_a9 + 967 pi_d_a5_a0_proc_0
      + 967 pi_d_a5_a1_proc_0 + 967 pi_d_a5_a2_proc_0 + 967 pi_d_a5_a3_proc_0
      + 967 pi_d_a5_a4_proc_0 + 967 pi_d_a5_a7_proc_0 + 967 pi_d_a5_a8_proc_0
      + 967 pi_d_a5_a9_proc_0 + 967 pi_d_a5_a10_proc_0 + 967 pi_d_a5_a11_proc_0
      + 967 pi_d_a5_a12_proc_0 + 967 pi_d_a5_a13_proc_0 + 967 pi_d_a5_a14_proc_0
      + pi_y1_a5 + pi_y2_a5_proc_0 >= 0
 c18: 756 pi_p_a5_a4 + 756 pi_p_a5_a9 + 756 pi_d_a5_a0_proc_1
      + 756 pi_d_a5_a1_proc_1 + 756 pi_d_a5_a2_proc_1 + 756 pi_d_a5_a3_proc_1
      + 756 pi_d_a5_a6_proc_1 + 756 pi_d_a5_a7_proc_1 + 756 pi_d_a5_a8_proc_1
      + 756 pi_d_a5_a9_proc_1 + 756 pi_d_a5_a10_proc_1 + 756 pi_d_a5_a11_proc_1
      + 756 pi_d_a5_a12_proc_1 + 756 pi_d_a5_a13_proc_1 + 756 pi_d_a5_a14_proc_1
      + pi_y1_a5 + pi_y2_a5_proc_1 >= 0
 c19: pi_p_a6_a4 - pi_p_a10_a6 - pi_p_a13_a6 - pi_p_a9_a6 - pi_d_a0_a6_proc_1
      + pi_d_a6_a0_proc_1 - pi_d_a1_a6_proc_1 + pi_d_a6_a1_proc_1
      - pi_d_a2_a6_proc_1 + pi_d_a6_a2_proc_1 - pi_d_a3_a6_proc_1
      + pi_d_a6_a3_proc_1 - pi_d_a5_a6_proc_1 + pi_d_a6_a5_proc_1
      + pi_d_a6_a7_proc_1 - pi_d_a7_a6_proc_1 + pi_d_a6_a8_proc_1
      - pi_d_a8_a6_proc_1 + pi_d_a6_a9_proc_1 - pi_d_a9_a6_proc_1
      + pi_d_a6_a10_proc_1 - pi_d_a10_a6_proc_1 + pi_d_a6_a11_proc_1
      - pi_d_a11_a6_proc_1 + pi_d_a6_a12_proc_1 - pi_d_a12_a6_proc_1
      + pi_d_a6_a13_proc_1 - pi_d_a13_a6_proc_1 + pi_d_a6_a14_proc_1
      - pi_d_a14_a6_proc_1 >= 0
 c20: 1164 pi_p_a6_a4 + 1164 pi_d_a6_a0_proc_1 + 1164 pi_d_a6_a1_proc_1
      + 1164 pi_d_a6_a2_proc_1 + 1164 pi_d_a6_a3_proc_1 + 1164 pi_d_a6_a5_proc_1
      + 1164 pi_d_a6_a7_proc_1 + 1164 pi_d_a6_a8_proc_1 + 1164 pi_d_a6_a9_proc_1
      + 1164 pi_d_a6_a10_proc_1 + 1164 pi_d_a6_a11_proc_1
      + 1164 pi_d_a6_a12_proc_1 + 1164 pi_d_a6_a13_proc_1
      + 1164 pi_d_a6_a14_proc_1 + pi_y1_a6 + pi_y2_a6_proc_1 >= 0
 c21: pi_p_a7_a0 - pi_p_a8_a7 + pi_p_a7_a9 + pi_p_a7_a14 - pi_d_a0_a7_proc_0
      - pi_d_a0_a7_proc_1 + pi_d_a7_a0_proc_0 + pi_d_a7_a0_proc_1
      - pi_d_a1_a7_proc_0 - pi_d_a1_a7_proc_1 + pi_d_a7_a1_proc_0
      + pi_d_a7_a1_proc_1 - pi_d_a2_a7_proc_0 - pi_d_a2_a7_proc_1
      + pi_d_a7_a2_proc_0 + pi_d_a7_a2_proc_1 - pi_d_a3_a7_proc_0
      - pi_d_a3_a7_proc_1 + pi_d_a7_a3_proc_0 + pi_d_a7_a3_proc_1
      - pi_d_a4_a7_proc_0 + pi_d_a7_a4_proc_0 - pi_d_a5_a7_proc_0
      - pi_d_a5_a7_proc_1 + pi_d_a7_a5_proc_0 + pi_d_a7_a5_proc_1
      - pi_d_a6_a7_proc_1 + pi_d_a7_a6_proc_1 + pi_d_a7_a8_proc_0
      + pi_d_a7_a8_proc_1 - pi_d_a8_a7_proc_0 - pi_d_a8_a7_proc_1
      + pi_d_a7_a9_proc_0 + pi_d_a7_a9_proc_1 - pi_d_a9_a7_proc_0
      - pi_d_a9_a7_proc_1 + pi_d_a7_a10_proc_0 + pi_d_a7_a10_proc_1
      - pi_d_a10_a7_proc_0 - pi_d_a10_a7_proc_1 + pi_d_a7_a11_proc_0
      + pi_d_a7_a11_proc_1 - pi_d_a11_a7_proc_0 - pi_d_a11_a7_proc_1
      + pi_d_a7_a12_proc_0 + pi_d_a7_a12_proc_1 - pi_d_a12_a7_proc_0
      - pi_d_a12_a7_proc_1 + pi_d_a7_a13_proc_0 + pi_d_a7_a13_proc_1
      - pi_d_a13_a7_proc_0 - pi_d_a13_a7_proc_1 + pi_d_a7_a14_proc_0
      + pi_d_a7_a14_proc_1 - pi_d_a14_a7_proc_0 - pi_d_a14_a7_proc_1 >= 0
 c22: 994 pi_p_a7_a0 + 994 pi_p_a7_a9 + 994 pi_p_a7_a14 + 994 pi_d_a7_a0_proc_0
      + 994 pi_d_a7_a1_proc_0 + 994 pi_d_a7_a2_proc_0 + 994 pi_d_a7_a3_proc_0
      + 994 pi_d_a7_a4_proc_0 + 994 pi_d_a7_a5_proc_0 + 994 pi_d_a7_a8_proc_0
      + 994 pi_d_a7_a9_proc_0 + 994 pi_d_a7_a10_proc_0 + 994 pi_d_a7_a11_proc_0
      + 994 pi_d_a7_a12_proc_0 + 994 pi_d_a7_a13_proc_0 + 994 pi_d_a7_a14_proc_0
      + pi_y1_a7 + pi_y2_a7_proc_0 >= 0
 c23: 920 pi_p_a7_a0 + 920 pi_p_a7_a9 + 920 pi_p_a7_a14 + 920 pi_d_a7_a0_proc_1
      + 920 pi_d_a7_a1_proc_1 + 920 pi_d_a7_a2_proc_1 + 920 pi_d_a7_a3_proc_1
      + 920 pi_d_a7_a5_proc_1 + 920 pi_d_a7_a6_proc_1 + 920 pi_d_a7_a8_proc_1
      + 920 pi_d_a7_a9_proc_1 + 920 pi_d_a7_a10_proc_1 + 920 pi_d_a7_a11_proc_1
      + 920 pi_d_a7_a12_proc_1 + 920 pi_d_a7_a13_proc_1 + 920 pi_d_a7_a14_proc_1
      + pi_y1_a7 + pi_y2_a7_proc_1 >= 0
 c24: pi_p_a8_a7 + pi_p_a8_a11 + pi_p_a8_a14 - pi_p_a10_a8 - pi_d_a0_a8_proc_0
      - pi_d_a0_a8_proc_1 + pi_d_a8_a0_proc_0 + pi_d_a8_a0_proc_1
      - pi_d_a1_a8_proc_0 - pi_d_a1_a8_proc_1 + pi_d_a8_a1_proc_0
      + pi_d_a8_a1_proc_1 - pi_d_a2_a8_proc_0 - pi_d_a2_a8_proc_1
      + pi_d_a8_a2_proc_0 + pi_d_a8_a2_proc_1 - pi_d_a3_a8_proc_0
      - pi_d_a3_a8_proc_1 + pi_d_a8_a3_proc_0 + pi_d_a8_a3_proc_1
      - pi_d_a4_a8_proc_0 + pi_d_a8_a4_proc_0 - pi_d_a5_a8_proc_0
      - pi_d_a5_a8_proc_1 + pi_d_a8_a5_proc_0 + pi_d_a8_a5_proc_1
      - pi_d_a6_a8_proc_1 + pi_d_a8_a6_proc_1 - pi_d_a7_a8_proc_0
      - pi_d_a7_a8_proc_1 + pi_d_a8_a7_proc_0 + pi_d_a8_a7_proc_1
      + pi_d_a8_a9_proc_0 + pi_d_a8_a9_proc_1 - pi_d_a9_a8_proc_0
      - pi_d_a9_a8_proc_1 + pi_d_a8_a10_proc_0 + pi_d_a8_a10_proc_1
      - pi_d_a10_a8_proc_0 - pi_d_a10_a8_proc_1 + pi_d_a8_a11_proc_0
      + pi_d_a8_a11_proc_1 - pi_d_a11_a8_proc_0 - pi_d_a11_a8_proc_1
      + pi_d_a8_a12_proc_0 + pi_d_a8_a12_proc_1 - pi_d_a12_a8_proc_0
      - pi_d_a12_a8_proc_1 + pi_d_a8_a13_proc_0 + pi_d_a8_a13_proc_1
      - pi_d_a13_a8_proc_0 - pi_d_a13_a8_proc_1 + pi_d_a8_a14_proc_0
      + pi_d_a8_a14_proc_1 - pi_d_a14_a8_proc_0 - pi_d_a14_a8_proc_1 >= 0
 c25: 467 pi_p_a8_a7 + 467 pi_p_a8_a11 + 467 pi_p_a8_a14 + 467 pi_d_a8_a0_proc_0
      + 467 pi_d_a8_a1_proc_0 + 467 pi_d_a8_a2_proc_0 + 467 pi_d_a8_a3_proc_0
      + 467 pi_d_a8_a4_proc_0 + 467 pi_d_a8_a5_proc_0 + 467 pi_d_a8_a7_proc_0
      + 467 pi_d_a8_a9_proc_0 + 467 pi_d_a8_a10_proc_0 + 467 pi_d_a8_a11_proc_0
      + 467 pi_d_a8_a12_proc_0 + 467 pi_d_a8_a13_proc_0 + 467 pi_d_a8_a14_proc_0
      + pi_y1_a8 + pi_y2_a8_proc_0 >= 0
 c26: 789 pi_p_a8_a7 + 789 pi_p_a8_a11 + 789 pi_p_a8_a14 + 789 pi_d_a8_a0_proc_1
      + 789 pi_d_a8_a1_proc_1 + 789 pi_d_a8_a2_proc_1 + 789 pi_d_a8_a3_proc_1
      + 789 pi_d_a8_a5_proc_1 + 789 pi_d_a8_a6_proc_1 + 789 pi_d_a8_a7_proc_1
      + 789 pi_d_a8_a9_proc_1 + 789 pi_d_a8_a10_proc_1 + 789 pi_d_a8_a11_proc_1
      + 789 pi_d_a8_a12_proc_1 + 789 pi_d_a8_a13_proc_1 + 789 pi_d_a8_a14_proc_1
      + pi_y1_a8 + pi_y2_a8_proc_1 >= 0
 c27: - pi_p_a7_a9 - pi_p_a1_a9 - pi_p_a5_a9 + pi_p_a9_a2 + pi_p_a9_a6
      - pi_d_a0_a9_proc_0 - pi_d_a0_a9_proc_1 + pi_d_a9_a0_proc_0
      + pi_d_a9_a0_proc_1 - pi_d_a1_a9_proc_0 - pi_d_a1_a9_proc_1
      + pi_d_a9_a1_proc_0 + pi_d_a9_a1_proc_1 - pi_d_a2_a9_proc_0
      - pi_d_a2_a9_proc_1 + pi_d_a9_a2_proc_0 + pi_d_a9_a2_proc_1
      - pi_d_a3_a9_proc_0 - pi_d_a3_a9_proc_1 + pi_d_a9_a3_proc_0
      + pi_d_a9_a3_proc_1 - pi_d_a4_a9_proc_0 + pi_d_a9_a4_proc_0
      - pi_d_a5_a9_proc_0 - pi_d_a5_a9_proc_1 + pi_d_a9_a5_proc_0
      + pi_d_a9_a5_proc_1 - pi_d_a6_a9_proc_1 + pi_d_a9_a6_proc_1
      - pi_d_a7_a9_proc_0 - pi_d_a7_a9_proc_1 + pi_d_a9_a7_proc_0
      + pi_d_a9_a7_proc_1 - pi_d_a8_a9_proc_0 - pi_d_a8_a9_proc_1
      + pi_d_a9_a8_proc_0 + pi_d_a9_a8_proc_1 + pi_d_a9_a10_proc_0
      + pi_d_a9_a10_proc_1 - pi_d_a10_a9_proc_0 - pi_d_a10_a9_proc_1
      + pi_d_a9_a11_proc_0 + pi_d_a9_a11_proc_1 - pi_d_a11_a9_proc_0
      - pi_d_a11_a9_proc_1 + pi_d_a9_a12_proc_0 + pi_d_a9_a12_proc_1
      - pi_d_a12_a9_proc_0 - pi_d_a12_a9_proc_1 + pi_d_a9_a13_proc_0
      + pi_d_a9_a13_proc_1 - pi_d_a13_a9_proc_0 - pi_d_a13_a9_proc_1
      + pi_d_a9_a14_proc_0 + pi_d_a9_a14_proc_1 - pi_d_a14_a9_proc_0
      - pi_d_a14_a9_proc_1 >= 0
 c28: 1124 pi_p_a9_a2 + 1124 pi_p_a9_a6 + 1124 pi_d_a9_a0_proc_0
      + 1124 pi_d_a9_a1_proc_0 + 1124 pi_d_a9_a2_proc_0 + 1124 pi_d_a9_a3_proc_0
      + 1124 pi_d_a9_a4_proc_0 + 1124 pi_d_a9_a5_proc_0 + 1124 pi_d_a9_a7_proc_0
      + 1124 pi_d_a9_a8_proc_0 + 1124 pi_d_a9_a10_proc_0
      + 1124 pi_d_a9_a11_proc_0 + 1124 pi_d_a9_a12_proc_0
      + 1124 pi_d_a9_a13_proc_0 + 1124 pi_d_a9_a14_proc_0 + pi_y1_a9
      + pi_y2_a9_proc_0 >= 0
 c29: 783 pi_p_a9_a2 + 783 pi_p_a9_a6 + 783 pi_d_a9_a0_proc_1
      + 783 pi_d_a9_a1_proc_1 + 783 pi_d_a9_a2_proc_1 + 783 pi_d_a9_a3_proc_1
      + 783 pi_d_a9_a5_proc_1 + 783 pi_d_a9_a6_proc_1 + 783 pi_d_a9_a7_proc_1
      + 783 pi_d_a9_a8_proc_1 + 783 pi_d_a9_a10_proc_1 + 783 pi_d_a9_a11_proc_1
      + 783 pi_d_a9_a12_proc_1 + 783 pi_d_a9_a13_proc_1 + 783 pi_d_a9_a14_proc_1
      + pi_y1_a9 + pi_y2_a9_proc_1 >= 0
 c30: pi_p_a10_a6 - pi_p_a1_a10 - pi_p_a11_a10 + pi_p_a10_a8
      - pi_d_a0_a10_proc_0 - pi_d_a0_a10_proc_1 + pi_d_a10_a0_proc_0
      + pi_d_a10_a0_proc_1 - pi_d_a1_a10_proc_0 - pi_d_a1_a10_proc_1
      + pi_d_a10_a1_proc_0 + pi_d_a10_a1_proc_1 - pi_d_a2_a10_proc_0
      - pi_d_a2_a10_proc_1 + pi_d_a10_a2_proc_0 + pi_d_a10_a2_proc_1
      - pi_d_a3_a10_proc_0 - pi_d_a3_a10_proc_1 + pi_d_a10_a3_proc_0
      + pi_d_a10_a3_proc_1 - pi_d_a4_a10_proc_0 + pi_d_a10_a4_proc_0
      - pi_d_a5_a10_proc_0 - pi_d_a5_a10_proc_1 + pi_d_a10_a5_proc_0
      + pi_d_a10_a5_proc_1 - pi_d_a6_a10_proc_1 + pi_d_a10_a6_proc_1
      - pi_d_a7_a10_proc_0 - pi_d_a7_a10_proc_1 + pi_d_a10_a7_proc_0
      + pi_d_a10_a7_proc_1 - pi_d_a8_a10_proc_0 - pi_d_a8_a10_proc_1
      + pi_d_a10_a8_proc_0 + pi_d_a10_a8_proc_1 - pi_d_a9_a10_proc_0
      - pi_d_a9_a10_proc_1 + pi_d_a10_a9_proc_0 + pi_d_a10_a9_proc_1
      + pi_d_a10_a11_proc_0 + pi_d_a10_a11_proc_1 - pi_d_a11_a10_proc_0
      - pi_d_a11_a10_proc_1 + pi_d_a10_a12_proc_0 + pi_d_a10_a12_proc_1
      - pi_d_a12_a10_proc_0 - pi_d_a12_a10_proc_1 + pi_d_a10_a13_proc_0
      + pi_d_a10_a13_proc_1 - pi_d_a13_a10_proc_0 - pi_d_a13_a10_proc_1
      + pi_d_a10_a14_proc_0 + pi_d_a10_a14_proc_1 - pi_d_a14_a10_proc_0
      - pi_d_a14_a10_proc_1 >= 0
 c31: 1131 pi_p_a10_a6 + 1131 pi_p_a10_a8 + 1131 pi_d_a10_a0_proc_0
      + 1131 pi_d_a10_a1_proc_0 + 1131 pi_d_a10_a2_proc_0
      + 1131 pi_d_a10_a3_proc_0 + 1131 pi_d_a10_a4_proc_0
      + 1131 pi_d_a10_a5_proc_0 + 1131 pi_d_a10_a7_proc_0
      + 1131 pi_d_a10_a8_proc_0 + 1131 pi_d_a10_a9_proc_0
      + 1131 pi_d_a10_a11_proc_0 + 1131 pi_d_a10_a12_proc_0
      + 1131 pi_d_a10_a13_proc_0 + 1131 pi_d_a10_a14_proc_0 + pi_y1_a10
      + pi_y2_a10_proc_0 >= 0
 c32: 647 pi_p_a10_a6 + 647 pi_p_a10_a8 + 647 pi_d_a10_a0_proc_1
      + 647 pi_d_a10_a1_proc_1 + 647 pi_d_a10_a2_proc_1 + 647 pi_d_a10_a3_proc_1
      + 647 pi_d_a10_a5_proc_1 + 647 pi_d_a10_a6_proc_1 + 647 pi_d_a10_a7_proc_1
      + 647 pi_d_a10_a8_proc_1 + 647 pi_d_a10_a9_proc_1
      + 647 pi_d_a10_a11_proc_1 + 647 pi_d_a10_a12_proc_1
      + 647 pi_d_a10_a13_proc_1 + 647 pi_d_a10_a14_proc_1 + pi_y1_a10
      + pi_y2_a10_proc_1 >= 0
 c33: - pi_p_a8_a11 + pi_p_a11_a10 + pi_p_a11_a13 + pi_p_a11_a12 - pi_p_a0_a11
      - pi_d_a0_a11_proc_0 - pi_d_a0_a11_proc_1 + pi_d_a11_a0_proc_0
      + pi_d_a11_a0_proc_1 - pi_d_a1_a11_proc_0 - pi_d_a1_a11_proc_1
      + pi_d_a11_a1_proc_0 + pi_d_a11_a1_proc_1 - pi_d_a2_a11_proc_0
      - pi_d_a2_a11_proc_1 + pi_d_a11_a2_proc_0 + pi_d_a11_a2_proc_1
      - pi_d_a3_a11_proc_0 - pi_d_a3_a11_proc_1 + pi_d_a11_a3_proc_0
      + pi_d_a11_a3_proc_1 - pi_d_a4_a11_proc_0 + pi_d_a11_a4_proc_0
      - pi_d_a5_a11_proc_0 - pi_d_a5_a11_proc_1 + pi_d_a11_a5_proc_0
      + pi_d_a11_a5_proc_1 - pi_d_a6_a11_proc_1 + pi_d_a11_a6_proc_1
      - pi_d_a7_a11_proc_0 - pi_d_a7_a11_proc_1 + pi_d_a11_a7_proc_0
      + pi_d_a11_a7_proc_1 - pi_d_a8_a11_proc_0 - pi_d_a8_a11_proc_1
      + pi_d_a11_a8_proc_0 + pi_d_a11_a8_proc_1 - pi_d_a9_a11_proc_0
      - pi_d_a9_a11_proc_1 + pi_d_a11_a9_proc_0 + pi_d_a11_a9_proc_1
      - pi_d_a10_a11_proc_0 - pi_d_a10_a11_proc_1 + pi_d_a11_a10_proc_0
      + pi_d_a11_a10_proc_1 + pi_d_a11_a12_proc_0 + pi_d_a11_a12_proc_1
      - pi_d_a12_a11_proc_0 - pi_d_a12_a11_proc_1 + pi_d_a11_a13_proc_0
      + pi_d_a11_a13_proc_1 - pi_d_a13_a11_proc_0 - pi_d_a13_a11_proc_1
      + pi_d_a11_a14_proc_0 + pi_d_a11_a14_proc_1 - pi_d_a14_a11_proc_0
      - pi_d_a14_a11_proc_1 >= 0
 c34: 564 pi_p_a11_a10 + 564 pi_p_a11_a13 + 564 pi_p_a11_a12
      + 564 pi_d_a11_a0_proc_0 + 564 pi_d_a11_a1_proc_0 + 564 pi_d_a11_a2_proc_0
      + 564 pi_d_a11_a3_proc_0 + 564 pi_d_a11_a4_proc_0 + 564 pi_d_a11_a5_proc_0
      + 564 pi_d_a11_a7_proc_0 + 564 pi_d_a11_a8_proc_0 + 564 pi_d_a11_a9_proc_0
      + 564 pi_d_a11_a10_proc_0 + 564 pi_d_a11_a12_proc_0
      + 564 pi_d_a11_a13_proc_0 + 564 pi_d_a11_a14_proc_0 + pi_y1_a11
      + pi_y2_a11_proc_0 >= 0
 c35: 856 pi_p_a11_a10 + 856 pi_p_a11_a13 + 856 pi_p_a11_a12
      + 856 pi_d_a11_a0_proc_1 + 856 pi_d_a11_a1_proc_1 + 856 pi_d_a11_a2_proc_1
      + 856 pi_d_a11_a3_proc_1 + 856 pi_d_a11_a5_proc_1 + 856 pi_d_a11_a6_proc_1
      + 856 pi_d_a11_a7_proc_1 + 856 pi_d_a11_a8_proc_1 + 856 pi_d_a11_a9_proc_1
      + 856 pi_d_a11_a10_proc_1 + 856 pi_d_a11_a12_proc_1
      + 856 pi_d_a11_a13_proc_1 + 856 pi_d_a11_a14_proc_1 + pi_y1_a11
      + pi_y2_a11_proc_1 >= 0
 c36: pi_p_a12_a1 - pi_p_a3_a12 - pi_p_a11_a12 + pi_p_a12_a2
      - pi_d_a0_a12_proc_0 - pi_d_a0_a12_proc_1 + pi_d_a12_a0_proc_0
      + pi_d_a12_a0_proc_1 - pi_d_a1_a12_proc_0 - pi_d_a1_a12_proc_1
      + pi_d_a12_a1_proc_0 + pi_d_a12_a1_proc_1 - pi_d_a2_a12_proc_0
      - pi_d_a2_a12_proc_1 + pi_d_a12_a2_proc_0 + pi_d_a12_a2_proc_1
      - pi_d_a3_a12_proc_0 - pi_d_a3_a12_proc_1 + pi_d_a12_a3_proc_0
      + pi_d_a12_a3_proc_1 - pi_d_a4_a12_proc_0 + pi_d_a12_a4_proc_0
      - pi_d_a5_a12_proc_0 - pi_d_a5_a12_proc_1 + pi_d_a12_a5_proc_0
      + pi_d_a12_a5_proc_1 - pi_d_a6_a12_proc_1 + pi_d_a12_a6_proc_1
      - pi_d_a7_a12_proc_0 - pi_d_a7_a12_proc_1 + pi_d_a12_a7_proc_0
      + pi_d_a12_a7_proc_1 - pi_d_a8_a12_proc_0 - pi_d_a8_a12_proc_1
      + pi_d_a12_a8_proc_0 + pi_d_a12_a8_proc_1 - pi_d_a9_a12_proc_0
      - pi_d_a9_a12_proc_1 + pi_d_a12_a9_proc_0 + pi_d_a12_a9_proc_1
      - pi_d_a10_a12_proc_0 - pi_d_a10_a12_proc_1 + pi_d_a12_a10_proc_0
      + pi_d_a12_a10_proc_1 - pi_d_a11_a12_proc_0 - pi_d_a11_a12_proc_1
      + pi_d_a12_a11_proc_0 + pi_d_a12_a11_proc_1 + pi_d_a12_a13_proc_0
      + pi_d_a12_a13_proc_1 - pi_d_a13_a12_proc_0 - pi_d_a13_a12_proc_1
      + pi_d_a12_a14_proc_0 + pi_d_a12_a14_proc_1 - pi_d_a14_a12_proc_0
      - pi_d_a14_a12_proc_1 >= 0
 c37: 607 pi_p_a12_a1 + 607 pi_p_a12_a12 + 607 pi_p_a12_a2
      + 607 pi_d_a12_a0_proc_0 + 607 pi_d_a12_a1_proc_0 + 607 pi_d_a12_a2_proc_0
      + 607 pi_d_a12_a3_proc_0 + 607 pi_d_a12_a4_proc_0 + 607 pi_d_a12_a5_proc_0
      + 607 pi_d_a12_a7_proc_0 + 607 pi_d_a12_a8_proc_0 + 607 pi_d_a12_a9_proc_0
      + 607 pi_d_a12_a10_proc_0 + 607 pi_d_a12_a11_proc_0
      + 607 pi_d_a12_a13_proc_0 + 607 pi_d_a12_a14_proc_0 + pi_y1_a12
      + pi_y2_a12_proc_0 >= 0
 c38: 951 pi_p_a12_a1 + 951 pi_p_a12_a12 + 951 pi_p_a12_a2
      + 951 pi_d_a12_a0_proc_1 + 951 pi_d_a12_a1_proc_1 + 951 pi_d_a12_a2_proc_1
      + 951 pi_d_a12_a3_proc_1 + 951 pi_d_a12_a5_proc_1 + 951 pi_d_a12_a6_proc_1
      + 951 pi_d_a12_a7_proc_1 + 951 pi_d_a12_a8_proc_1 + 951 pi_d_a12_a9_proc_1
      + 951 pi_d_a12_a10_proc_1 + 951 pi_d_a12_a11_proc_1
      + 951 pi_d_a12_a13_proc_1 + 951 pi_d_a12_a14_proc_1 + pi_y1_a12
      + pi_y2_a12_proc_1 >= 0
 c39: pi_p_a13_a6 - pi_p_a14_a13 - pi_p_a11_a13 - pi_d_a0_a13_proc_0
      - pi_d_a0_a13_proc_1 + pi_d_a13_a0_proc_0 + pi_d_a13_a0_proc_1
      - pi_d_a1_a13_proc_0 - pi_d_a1_a13_proc_1 + pi_d_a13_a1_proc_0
      + pi_d_a13_a1_proc_1 - pi_d_a2_a13_proc_0 - pi_d_a2_a13_proc_1
      + pi_d_a13_a2_proc_0 + pi_d_a13_a2_proc_1 - pi_d_a3_a13_proc_0
      - pi_d_a3_a13_proc_1 + pi_d_a13_a3_proc_0 + pi_d_a13_a3_proc_1
      - pi_d_a4_a13_proc_0 + pi_d_a13_a4_proc_0 - pi_d_a5_a13_proc_0
      - pi_d_a5_a13_proc_1 + pi_d_a13_a5_proc_0 + pi_d_a13_a5_proc_1
      - pi_d_a6_a13_proc_1 + pi_d_a13_a6_proc_1 - pi_d_a7_a13_proc_0
      - pi_d_a7_a13_proc_1 + pi_d_a13_a7_proc_0 + pi_d_a13_a7_proc_1
      - pi_d_a8_a13_proc_0 - pi_d_a8_a13_proc_1 + pi_d_a13_a8_proc_0
      + pi_d_a13_a8_proc_1 - pi_d_a9_a13_proc_0 - pi_d_a9_a13_proc_1
      + pi_d_a13_a9_proc_0 + pi_d_a13_a9_proc_1 - pi_d_a10_a13_proc_0
      - pi_d_a10_a13_proc_1 + pi_d_a13_a10_proc_0 + pi_d_a13_a10_proc_1
      - pi_d_a11_a13_proc_0 - pi_d_a11_a13_proc_1 + pi_d_a13_a11_proc_0
      + pi_d_a13_a11_proc_1 - pi_d_a12_a13_proc_0 - pi_d_a12_a13_proc_1
      + pi_d_a13_a12_proc_0 + pi_d_a13_a12_proc_1 + pi_d_a13_a14_proc_0
      + pi_d_a13_a14_proc_1 - pi_d_a14_a13_proc_0 - pi_d_a14_a13_proc_1 >= 0
 c40: 990 pi_p_a13_a6 + 990 pi_d_a13_a0_proc_0 + 990 pi_d_a13_a1_proc_0
      + 990 pi_d_a13_a2_proc_0 + 990 pi_d_a13_a3_proc_0 + 990 pi_d_a13_a4_proc_0
      + 990 pi_d_a13_a5_proc_0 + 990 pi_d_a13_a7_proc_0 + 990 pi_d_a13_a8_proc_0
      + 990 pi_d_a13_a9_proc_0 + 990 pi_d_a13_a10_proc_0
      + 990 pi_d_a13_a11_proc_0 + 990 pi_d_a13_a12_proc_0
      + 990 pi_d_a13_a14_proc_0 + pi_y1_a13 + pi_y2_a13_proc_0 >= 0
 c41: 1073 pi_p_a13_a6 + 1073 pi_d_a13_a0_proc_1 + 1073 pi_d_a13_a1_proc_1
      + 1073 pi_d_a13_a2_proc_1 + 1073 pi_d_a13_a3_proc_1
      + 1073 pi_d_a13_a5_proc_1 + 1073 pi_d_a13_a6_proc_1
      + 1073 pi_d_a13_a7_proc_1 + 1073 pi_d_a13_a8_proc_1
      + 1073 pi_d_a13_a9_proc_1 + 1073 pi_d_a13_a10_proc_1
      + 1073 pi_d_a13_a11_proc_1 + 1073 pi_d_a13_a12_proc_1
      + 1073 pi_d_a13_a14_proc_1 + pi_y1_a13 + pi_y2_a13_proc_1 >= 0
 c42: pi_p_a14_a13 - pi_p_a7_a14 - pi_p_a8_a14 - pi_d_a0_a14_proc_0
      - pi_d_a0_a14_proc_1 + pi_d_a14_a0_proc_0 + pi_d_a14_a0_proc_1
      - pi_d_a1_a14_proc_0 - pi_d_a1_a14_proc_1 + pi_d_a14_a1_proc_0
      + pi_d_a14_a1_proc_1 - pi_d_a2_a14_proc_0 - pi_d_a2_a14_proc_1
      + pi_d_a14_a2_proc_0 + pi_d_a14_a2_proc_1 - pi_d_a3_a14_proc_0
      - pi_d_a3_a14_proc_1 + pi_d_a14_a3_proc_0 + pi_d_a14_a3_proc_1
      - pi_d_a4_a14_proc_0 + pi_d_a14_a4_proc_0 - pi_d_a5_a14_proc_0
      - pi_d_a5_a14_proc_1 + pi_d_a14_a5_proc_0 + pi_d_a14_a5_proc_1
      - pi_d_a6_a14_proc_1 + pi_d_a14_a6_proc_1 - pi_d_a7_a14_proc_0
      - pi_d_a7_a14_proc_1 + pi_d_a14_a7_proc_0 + pi_d_a14_a7_proc_1
      - pi_d_a8_a14_proc_0 - pi_d_a8_a14_proc_1 + pi_d_a14_a8_proc_0
      + pi_d_a14_a8_proc_1 - pi_d_a9_a14_proc_0 - pi_d_a9_a14_proc_1
      + pi_d_a14_a9_proc_0 + pi_d_a14_a9_proc_1 - pi_d_a10_a14_proc_0
      - pi_d_a10_a14_proc_1 + pi_d_a14_a10_proc_0 + pi_d_a14_a10_proc_1
      - pi_d_a11_a14_proc_0 - pi_d_a11_a14_proc_1 + pi_d_a14_a11_proc_0
      + pi_d_a14_a11_proc_1 - pi_d_a12_a14_proc_0 - pi_d_a12_a14_proc_1
      + pi_d_a14_a12_proc_0 + pi_d_a14_a12_proc_1 - pi_d_a13_a14_proc_0
      - pi_d_a13_a14_proc_1 + pi_d_a14_a13_proc_0 + pi_d_a14_a13_proc_1 >= 0
 c43: 1100 pi_p_a14_a13 + 1100 pi_p_a14_a14 + 1100 pi_d_a14_a0_proc_0
      + 1100 pi_d_a14_a1_proc_0 + 1100 pi_d_a14_a2_proc_0
      + 1100 pi_d_a14_a3_proc_0 + 1100 pi_d_a14_a4_proc_0
      + 1100 pi_d_a14_a5_proc_0 + 1100 pi_d_a14_a7_proc_0
      + 1100 pi_d_a14_a8_proc_0 + 1100 pi_d_a14_a9_proc_0
      + 1100 pi_d_a14_a10_proc_0 + 1100 pi_d_a14_a11_proc_0
      + 1100 pi_d_a14_a12_proc_0 + 1100 pi_d_a14_a13_proc_0 + pi_y1_a14
      + pi_y2_a14_proc_0 >= 0
 c44: 1177 pi_p_a14_a13 + 1177 pi_p_a14_a14 + 1177 pi_d_a14_a0_proc_1
      + 1177 pi_d_a14_a1_proc_1 + 1177 pi_d_a14_a2_proc_1
      + 1177 pi_d_a14_a3_proc_1 + 1177 pi_d_a14_a5_proc_1
      + 1177 pi_d_a14_a6_proc_1 + 1177 pi_d_a14_a7_proc_1
      + 1177 pi_d_a14_a8_proc_1 + 1177 pi_d_a14_a9_proc_1
      + 1177 pi_d_a14_a10_proc_1 + 1177 pi_d_a14_a11_proc_1
      + 1177 pi_d_a14_a12_proc_1 + 1177 pi_d_a14_a13_proc_1 + pi_y1_a14
      + pi_y2_a14_proc_1 >= 0

Bounds
       pi_y1_a0 Free
       pi_y1_a1 Free
       pi_y1_a2 Free
       pi_y1_a3 Free
       pi_y1_a4 Free
       pi_y1_a5 Free
       pi_y1_a6 Free
       pi_y1_a7 Free
       pi_y1_a8 Free
       pi_y1_a9 Free
       pi_y1_a10 Free
       pi_y1_a11 Free
       pi_y1_a12 Free
       pi_y1_a13 Free
       pi_y1_a14 Free
End
